69
0 52 31 53 56 39 62 17 48 12 
47 11 36 29 18 66 13 27 9 14 
40 30 21 6 63 23 3 44 22 43 
24 19 42 37 8 60 54 2 10 41 
35 16 7 67 33 61 34 32 57 15 
25 55 59 26 5 28 4 46 50 49 
51 68 58 38 65 45 20 64 1 
